c   #vars: 33   #clauses: 154   #literals: 469
c 
p cnf 33 154
-2 -3 0
12 -28 32 33 0
-5 -6 0
-7 -8 0
20 -27 -32 -33 0
4 10 11 -16 0
-10 -11 0
5 6 -9 23 0
-13 -14 0
-2 -3 20 -27 0
7 8 30 31 0
16 17 30 31 0
-2 -3 20 0
15 -24 -28 -29 0
-16 -17 0
-18 -19 0
1 -6 23 -28 0
13 14 26 27 0
-21 -22 0
4 -16 18 19 0
1 -23 32 33 0
-24 -25 0
-26 -27 0
-28 -29 0
-30 -31 0
10 11 28 29 0
12 -24 32 33 0
4 -10 18 19 0
-32 -33 0
18 19 30 31 0
1 -13 28 29 0
-1 -14 0
12 -24 28 29 0
16 17 -28 -29 0
-1 9 23 -26 0
-1 -29 0
-1 -33 0
5 6 32 33 0
-2 -10 0
-3 -11 0
9 -23 26 27 0
-3 -15 0
5 6 24 25 0
-2 -20 0
1 -6 -13 23 0
-2 -21 0
-3 -22 0
18 19 32 33 0
-2 -26 0
-3 -27 0
7 8 20 -27 0
1 13 14 -28 0
-3 20 26 27 0
-4 -11 0
13 14 24 25 0
-4 -17 0
1 13 14 -32 0
-16 -17 28 29 0
-4 -19 0
18 19 28 29 0
1 -9 -13 23 0
4 16 17 -18 0
5 6 10 11 0
-5 -10 0
-6 -11 0
2 3 10 11 0
-5 -13 0
-6 -14 0
-8 20 -32 -33 0
9 -18 26 27 0
-6 -15 0
2 3 -8 20 0
-5 -23 0
1 -6 23 -32 0
-5 -24 0
-6 -25 0
2 3 20 -27 0
-5 -32 0
-6 -33 0
-2 5 6 15 0
-5 15 24 25 0
-6 9 23 -26 0
-2 15 24 25 0
2 3 15 -24 0
-7 -20 0
1 28 29 -32 0
13 14 21 22 0
-7 -24 0
-8 -25 0
10 11 21 22 0
-7 -26 0
-8 -27 0
-7 -30 0
-8 -31 0
2 3 26 27 0
12 28 29 -32 0
1 13 14 -23 0
12 24 25 -32 0
-2 15 -28 -29 0
12 24 25 -28 0
-8 20 26 27 0
-9 -19 0
5 6 13 14 0
4 10 11 -18 0
1 -28 32 33 0
-9 -27 0
-3 20 -32 -33 0
9 18 19 -26 0
-10 -21 0
-11 -22 0
-10 -28 0
-11 -29 0
-10 -30 0
-11 -31 0
-5 15 -28 -29 0
-1 5 6 23 0
-12 -25 0
10 11 30 31 0
-12 -29 0
2 3 -5 15 0
-12 -33 0
-1 9 -18 23 0
-13 -21 0
-14 -22 0
7 8 26 27 0
-13 -24 0
-14 -25 0
-6 9 -18 23 0
-13 -26 0
-14 -27 0
-2 -3 -8 20 0
-15 -25 0
1 -13 32 33 0
16 17 21 22 0
-16 -21 0
-17 -22 0
1 -9 23 -32 0
-16 -30 0
-17 -31 0
-18 -28 0
-19 -29 0
9 18 19 -23 0
-18 -30 0
-19 -31 0
7 8 24 25 0
-18 -32 0
-19 -33 0
5 6 15 -24 0
-20 -26 0
1 -23 28 29 0
-3 7 8 20 0
1 -9 23 -28 0
4 -10 16 17 0
2 3 21 22 0
